# Solution for model problem
# Objective value = 0.00083427
CLIENT_PE2_0 0
CLIENT_PE4_0 0
CLIENT_PE6_0 0
CLIENT_PE13_0 1
CLIENT_PE0_4 0
CLIENT_PE2_4 0
CLIENT_PE3_4 0
CLIENT_PE4_4 0
CLIENT_PE6_4 0
CLIENT_PE7_4 0
CLIENT_PE13_4 1
CLIENT_PE14_4 0
CLIENT_PE0_2 0
CLIENT_PE2_2 0
CLIENT_PE3_2 0
CLIENT_PE4_2 0
CLIENT_PE6_2 0
CLIENT_PE7_2 0
CLIENT_PE13_2 1
CLIENT_PE14_2 0
CLIENT_PE0_1 0
CLIENT_PE2_1 0
CLIENT_PE3_1 0
CLIENT_PE4_1 0
CLIENT_PE6_1 0
CLIENT_PE7_1 0
CLIENT_PE13_1 1
CLIENT_PE14_1 0
